molecule {
O
H 1 R
H 1 R 2 A

R = .9
A = 104.5
}

plugin_load("./fcidump.so")

set {
  basis sto-3g
}

energy('scf')

plugin("./fcidump.so")
